c uprop, v00.0, 
c reading from data/prog708.c.cnf
c done reading: 0.003003
p cnf 133 649
-41 -50 0
-37 -50 0
37 41 50 0
37 41 -48 0
-37 -41 -48 0
37 -41 48 0
-37 41 48 0
50 -51 0
-31 -51 0
31 -50 51 0
31 -49 -50 0
-31 -49 50 0
31 49 50 0
-31 49 -50 0
-47 51 0
-44 -47 0
44 47 -51 0
-39 44 -51 0
-39 -44 51 0
39 44 51 0
39 -44 -51 0
-35 47 0
-33 -35 0
33 35 -47 0
-29 33 -47 0
-29 -33 47 0
29 33 47 0
29 -33 -47 0
35 -46 0
-46 -53 0
-35 46 53 0
-34 -35 53 0
-34 35 -53 0
34 35 53 0
34 -35 -53 0
46 -55 0
-55 -57 0
-46 55 57 0
-46 57 -58 0
46 -57 -58 0
46 57 58 0
-46 -57 58 0
55 -59 0
-59 -61 0
-55 59 61 0
-55 61 -63 0
55 -61 -63 0
55 61 63 0
-55 -61 63 0
31 -64 0
41 -64 0
-31 -41 64 0
-31 -41 -65 0
31 41 -65 0
-31 41 65 0
31 -41 65 0
-37 -44 66 0
-44 -64 66 0
-37 -64 66 0
37 44 -66 0
44 64 -66 0
37 64 -66 0
44 -66 -67 0
37 -66 -67 0
64 -66 -67 0
-44 66 67 0
-37 66 67 0
-64 66 67 0
-37 -44 -64 67 0
37 44 64 -67 0
-31 -33 68 0
-33 -66 68 0
-31 -66 68 0
31 33 -68 0
33 66 -68 0
31 66 -68 0
33 -68 -69 0
31 -68 -69 0
66 -68 -69 0
-33 68 69 0
-31 68 69 0
-66 68 69 0
-31 -33 -66 69 0
31 33 66 -69 0
-44 -53 70 0
-53 -68 70 0
-44 -68 70 0
44 53 -70 0
53 68 -70 0
44 68 -70 0
-28 53 -70 0
-28 44 -70 0
-28 68 -70 0
28 -53 70 0
28 -44 70 0
28 -68 70 0
28 -44 -53 -68 0
-28 44 53 68 0
27 -33 -57 0
27 -57 -70 0
27 -33 -70 0
-27 33 57 0
-27 57 70 0
-27 33 70 0
-26 -27 57 0
-26 -27 33 0
-26 -27 70 0
26 27 -57 0
26 27 -33 0
26 27 -70 0
26 -33 -57 -70 0
-26 33 57 70 0
25 -53 -61 0
25 -27 -61 0
25 -27 -53 0
-25 53 61 0
-25 27 61 0
-25 27 53 0
-24 -25 61 0
-24 -25 53 0
-24 -25 27 0
24 25 -61 0
24 25 -53 0
24 25 -27 0
24 -27 -53 -61 0
-24 27 53 61 0
-23 57 0
-23 25 0
23 -25 -57 0
-22 -25 -57 0
-22 25 57 0
22 25 -57 0
22 -25 57 0
-21 61 0
-21 23 0
21 -23 -61 0
-20 -23 -61 0
-20 23 61 0
20 23 -61 0
20 -23 61 0
-19 67 0
-19 41 0
19 -41 -67 0
-18 -41 -67 0
-18 41 67 0
18 41 -67 0
18 -41 67 0
17 -37 -69 0
17 -19 -69 0
17 -19 -37 0
-17 37 69 0
-17 19 69 0
-17 19 37 0
-16 -17 69 0
-16 -17 37 0
-16 -17 19 0
16 17 -69 0
16 17 -37 0
16 17 -19 0
16 -19 -37 -69 0
-16 19 37 69 0
15 -28 -31 0
15 -17 -28 0
15 -17 -31 0
-15 28 31 0
-15 17 28 0
-15 17 31 0
-15 28 -40 0
-15 31 -40 0
-15 17 -40 0
15 -28 40 0
15 -31 40 0
15 -17 40 0
-17 -28 -31 40 0
17 28 31 -40 0
-26 36 -44 0
-15 -26 36 0
-15 36 -44 0
26 -36 44 0
15 26 -36 0
15 -36 44 0
26 -30 -36 0
-30 -36 44 0
15 -30 -36 0
-26 30 36 0
30 36 -44 0
-15 30 36 0
-15 -26 30 -44 0
15 26 -30 44 0
-24 -33 43 0
-24 -36 43 0
-33 -36 43 0
24 33 -43 0
24 36 -43 0
33 36 -43 0
24 -32 -43 0
-32 33 -43 0
-32 36 -43 0
-24 32 43 0
32 -33 43 0
32 -36 43 0
-24 32 -33 -36 0
24 -32 33 36 0
-22 52 -53 0
-22 -43 52 0
-43 52 -53 0
22 -52 53 0
22 43 -52 0
43 -52 53 0
22 -52 -56 0
-52 53 -56 0
43 -52 -56 0
-22 52 56 0
52 -53 56 0
-43 52 56 0
-22 -43 -53 56 0
22 43 53 -56 0
-20 -57 60 0
-20 -52 60 0
-52 -57 60 0
20 57 -60 0
20 52 -60 0
52 57 -60 0
-14 20 -60 0
-14 57 -60 0
-14 52 -60 0
14 -20 60 0
14 -57 60 0
14 -52 60 0
14 -20 -52 -57 0
-14 20 52 57 0
13 -21 -61 0
13 -21 -60 0
13 -60 -61 0
-13 21 61 0
-13 21 60 0
-13 60 61 0
-12 -13 21 0
-12 -13 61 0
-12 -13 60 0
12 13 -21 0
12 13 -61 0
12 13 -60 0
12 -21 -60 -61 0
-12 21 60 61 0
-11 16 0
-11 41 0
11 -16 -41 0
-10 -16 -41 0
-10 16 41 0
10 -16 41 0
10 16 -41 0
9 -37 -40 0
9 -11 -40 0
9 -11 -37 0
-9 37 40 0
-9 11 40 0
-9 11 37 0
-8 -9 40 0
-8 -9 37 0
-8 -9 11 0
8 9 -40 0
8 9 -37 0
8 9 -11 0
8 -11 -37 -40 0
-8 11 37 40 0
7 -30 -31 0
7 -9 -30 0
7 -9 -31 0
-7 30 31 0
-7 9 30 0
-7 9 31 0
-7 30 -71 0
-7 31 -71 0
-7 9 -71 0
7 -30 71 0
7 -31 71 0
7 -9 71 0
-9 -30 -31 71 0
9 30 31 -71 0
-32 -44 72 0
-7 -32 72 0
-7 -44 72 0
32 44 -72 0
7 32 -72 0
7 44 -72 0
32 -72 -73 0
44 -72 -73 0
7 -72 -73 0
-32 72 73 0
-44 72 73 0
-7 72 73 0
-7 -32 -44 73 0
7 32 44 -73 0
-33 -56 74 0
-56 -72 74 0
-33 -72 74 0
33 56 -74 0
56 72 -74 0
33 72 -74 0
56 -74 -75 0
33 -74 -75 0
72 -74 -75 0
-56 74 75 0
-33 74 75 0
-72 74 75 0
-33 -56 -72 75 0
33 56 72 -75 0
-14 -53 76 0
-14 -74 76 0
-53 -74 76 0
14 53 -76 0
14 74 -76 0
53 74 -76 0
14 -76 -77 0
53 -76 -77 0
74 -76 -77 0
-14 76 77 0
-53 76 77 0
-74 76 77 0
-14 -53 -74 77 0
14 53 74 -77 0
-12 -57 78 0
-12 -76 78 0
-57 -76 78 0
12 57 -78 0
12 76 -78 0
57 76 -78 0
12 -78 -79 0
57 -78 -79 0
76 -78 -79 0
-12 78 79 0
-57 78 79 0
-76 78 79 0
-12 -57 -76 79 0
12 57 76 -79 0
-13 -61 80 0
-13 -78 80 0
-61 -78 80 0
13 61 -80 0
13 78 -80 0
61 78 -80 0
13 -80 -81 0
61 -80 -81 0
78 -80 -81 0
-13 80 81 0
-61 80 81 0
-78 80 81 0
-13 -61 -78 81 0
13 61 78 -81 0
8 -82 0
41 -82 0
-8 -41 82 0
-8 -41 -83 0
8 41 -83 0
-8 41 83 0
8 -41 83 0
-37 -71 84 0
-71 -82 84 0
-37 -82 84 0
37 71 -84 0
71 82 -84 0
37 82 -84 0
71 -84 -85 0
37 -84 -85 0
82 -84 -85 0
-71 84 85 0
-37 84 85 0
-82 84 85 0
-37 -71 -82 85 0
37 71 82 -85 0
-31 -73 86 0
-73 -84 86 0
-31 -84 86 0
31 73 -86 0
73 84 -86 0
31 84 -86 0
73 -86 -87 0
31 -86 -87 0
84 -86 -87 0
-73 86 87 0
-31 86 87 0
-84 86 87 0
-31 -73 -84 87 0
31 73 84 -87 0
-44 -75 88 0
-75 -86 88 0
-44 -86 88 0
44 75 -88 0
75 86 -88 0
44 86 -88 0
75 -88 -89 0
44 -88 -89 0
86 -88 -89 0
-75 88 89 0
-44 88 89 0
-86 88 89 0
-44 -75 -86 89 0
44 75 86 -89 0
-33 -77 90 0
-77 -88 90 0
-33 -88 90 0
33 77 -90 0
77 88 -90 0
33 88 -90 0
77 -90 -91 0
33 -90 -91 0
88 -90 -91 0
-77 90 91 0
-33 90 91 0
-88 90 91 0
-33 -77 -88 91 0
33 77 88 -91 0
-53 -79 92 0
-79 -90 92 0
-53 -90 92 0
53 79 -92 0
79 90 -92 0
53 90 -92 0
79 -92 -93 0
53 -92 -93 0
90 -92 -93 0
-79 92 93 0
-53 92 93 0
-90 92 93 0
-53 -79 -90 93 0
53 79 90 -93 0
-57 -81 94 0
-81 -92 94 0
-57 -92 94 0
57 81 -94 0
81 92 -94 0
57 92 -94 0
81 -94 -95 0
57 -94 -95 0
92 -94 -95 0
-81 94 95 0
-57 94 95 0
-92 94 95 0
-57 -81 -92 95 0
57 81 92 -95 0
-61 -80 96 0
-80 -94 96 0
-61 -94 96 0
61 80 -96 0
80 94 -96 0
61 94 -96 0
80 -96 -97 0
61 -96 -97 0
94 -96 -97 0
-80 96 97 0
-61 96 97 0
-94 96 97 0
-61 -80 -94 97 0
61 80 94 -97 0
-41 -98 0
-37 -98 0
37 41 98 0
37 41 -99 0
-37 -41 -99 0
37 -41 99 0
-37 41 99 0
98 -100 0
-65 -100 0
65 -98 100 0
65 -98 -101 0
-65 98 -101 0
65 98 101 0
-65 -98 101 0
100 -102 0
-18 -102 0
18 -100 102 0
18 -100 -103 0
-18 100 -103 0
18 100 103 0
-18 -100 103 0
102 -104 0
-10 -104 0
10 -102 104 0
10 -102 -105 0
-10 102 -105 0
10 102 105 0
-10 -102 105 0
104 -106 0
-83 -106 0
83 -104 106 0
83 -104 -107 0
-83 104 -107 0
83 104 107 0
-83 -104 107 0
106 -108 0
-85 -108 0
85 -106 108 0
85 -106 -109 0
-85 106 -109 0
85 106 109 0
-85 -106 109 0
108 -110 0
-87 -110 0
87 -108 110 0
87 -108 -111 0
-87 108 -111 0
87 108 111 0
-87 -108 111 0
110 -112 0
-89 -112 0
89 -110 112 0
89 -110 -113 0
-89 110 -113 0
89 110 113 0
-89 -110 113 0
112 -114 0
-91 -114 0
91 -112 114 0
91 -112 -115 0
-91 112 -115 0
91 112 115 0
-91 -112 115 0
114 -117 0
-93 -117 0
93 -114 117 0
93 -114 -119 0
-93 114 -119 0
93 114 119 0
-93 -114 119 0
117 -121 0
-95 -121 0
95 -117 121 0
95 -117 -123 0
-95 117 -123 0
95 117 123 0
-95 -117 123 0
121 -125 0
-97 -125 0
97 -121 125 0
97 -121 -127 0
-97 121 -127 0
97 121 127 0
-97 -121 127 0
125 -129 0
-96 -129 0
96 -125 129 0
-42 96 -125 0
-42 -96 125 0
42 96 125 0
42 -96 -125 0
-38 116 0
-38 41 0
38 -41 -116 0
41 -116 0
-41 116 0
-37 45 -118 0
-38 45 -118 0
-37 -38 45 0
37 -45 118 0
38 -45 118 0
37 38 -45 0
45 -118 0
-37 45 0
-38 45 0
-37 -38 -118 0
54 -65 -120 0
-45 54 -120 0
-45 54 -65 0
-54 65 120 0
45 -54 120 0
45 -54 65 0
-54 120 0
-54 65 0
45 -54 0
45 65 120 0
-18 62 -122 0
-54 62 -122 0
-18 -54 62 0
18 -62 122 0
54 -62 122 0
18 54 -62 0
-62 122 0
18 -62 0
54 -62 0
18 54 122 0
-10 -124 131 0
-62 -124 131 0
-10 -62 131 0
10 124 -131 0
62 124 -131 0
10 62 -131 0
124 -131 0
10 -131 0
62 -131 0
10 62 124 0
-83 -126 132 0
-126 -131 132 0
-83 -131 132 0
83 126 -132 0
126 131 -132 0
83 131 -132 0
-126 132 0
-83 132 0
-131 132 0
-83 -126 -131 0
-85 -128 133 0
-128 -132 133 0
-85 -132 133 0
85 128 -133 0
128 132 -133 0
85 132 -133 0
128 -133 0
85 -133 0
132 -133 0
85 128 132 0
6 -87 -130 0
6 -130 -133 0
6 -87 -133 0
-6 87 130 0
-6 130 133 0
-6 87 133 0
-6 130 0
-6 87 0
-6 133 0
87 130 133 0
-5 89 0
-5 6 0
5 -6 -89 0
6 -89 0
-6 89 0
-4 91 0
-4 5 0
4 -5 -91 0
5 -91 0
-5 91 0
-3 93 0
-3 4 0
3 -4 -93 0
4 -93 0
-4 93 0
-2 95 0
-2 3 0
2 -3 -95 0
3 -95 0
-3 95 0
-1 97 0
-1 2 0
1 -2 -97 0
2 -97 0
-2 97 0
-1 -96 0
1 -96 0
-1 96 0
